NAME : set2.2183664.tour
COMMENT : Length = 2183664
TYPE : TOUR
DIMENSION : 61
TOUR_SECTION
1
42
11
47
10
16
60
56
25
48
50
2
45
14
5
36
4
22
8
52
61
43
21
28
24
15
53
44
18
17
32
31
35
39
19
30
37
6
41
57
29
3
33
34
59
54
51
27
7
9
40
26
55
49
46
20
13
23
12
38
58
-1
EOF
